NAME: eil76
COMMENT: Quick (5min) local search tour for eil76 (645.6396021842572)
TYPE: TOUR
DIMENSION: 76
TOUR_SECTION: 1 73 62 28 74 64 41 56 32 9 39 72 58 10 38 66 59 11 65 31 55 25 50 18 24 49 44 3 16 63 33 6 51 17 40 12 26 4 45 29 48 30 2 68 75 76 67 34 46 8 35 7 53 14 19 54 13 27 52 57 15 5 37 20 70 60 71 36 47 21 69 61 22 42 43 23 -1
EOF